DIMENSION: 6
EDGE_WEIGHT_TYPE: EXPLICIT
EDGE_WEIGHT_FORMAT: FULL_MATRIX
EDGE_WEIGHT_SECTION:
32767 32767 55 32767 83 32767 
32767 32767 32767 19 32767 32767 
55 32767 32767 81 32767 77 
32767 19 81 32767 57 32767 
83 32767 32767 57 32767 32767 
32767 32767 77 32767 32767 32767 
EOF